&CONTROL
  calculation  = 'vc-relax' ,
  tstress = .true. ,
  tprnfor = .true. ,
  prefix  = 'pw' ,
  outdir  = './work/' ,
  pseudo_dir = './potentials' ,
/
&SYSTEM
  ibrav = 0
  A =    3.57371
  nat = 8
  ntyp = 1
  ecutwfc  =  40.0 ,
  ecutrho  = 326.0 ,
  occupations = 'smearing' ,
  degauss  = 0.02 ,
  smearing = 'mp',
  nspin = 2 ,
  starting_magnetization(1) = 1 ,
  tot_magnetization = -1 ,
/
&ELECTRONS
  mixing_beta = 0.7 ,
/
&IONS
  ion_dynamics = 'bfgs' ,
/
&CELL
  cell_dynamics='bfgs',
/
CELL_PARAMETERS {alat}
  1.000000000000000   0.000000000000000   0.000000000000000 
  0.000000000000000   1.000000000000000   0.000000000000000 
  0.000000000000000   0.000000000000000   1.000000000000000 
ATOMIC_SPECIES
   C   12.01060  C.pbe-n-kjpaw_psl.1.0.0.UPF 
ATOMIC_POSITIONS {crystal}
  C   0.250000000000000   0.750000000000000   0.250000000000000 
  C   0.000000000000000   0.000000000000000   0.500000000000000 
  C   0.250000000000000   0.250000000000000   0.750000000000000 
  C   0.000000000000000   0.500000000000000   0.000000000000000 
  C   0.750000000000000   0.750000000000000   0.750000000000000 
  C   0.500000000000000   0.000000000000000   0.000000000000000 
  C   0.750000000000000   0.250000000000000   0.250000000000000 
  C   0.500000000000000   0.500000000000000   0.500000000000000 
K_POINTS automatic
  8 8 8  1 1 1

