&CONTROL
  calculation  = 'vc-relax' ,
  tstress = .true. ,
  tprnfor = .true. ,
  prefix  = 'pw' ,
  outdir  = './work/' ,
  pseudo_dir = './potentials' ,
/
&SYSTEM
  ibrav = 0
  A =    5.76286
  nat = 8
  ntyp = 1
  ecutwfc  =  42.0 ,
  ecutrho  = 239.0 ,
  occupations = 'smearing' ,
  degauss  = 0.02 ,
  smearing = 'mp',
  nspin = 2 ,
  starting_magnetization(1) = 1 ,
  tot_magnetization = -1 ,
/
&ELECTRONS
  mixing_beta = 0.7 ,
/
&IONS
  ion_dynamics = 'bfgs' ,
/
&CELL
  cell_dynamics='bfgs',
/
CELL_PARAMETERS {alat}
  1.000000000000000   0.000000000000000   0.000000000000000 
  0.000000000000000   1.000000000000000   0.000000000000000 
  0.000000000000000   0.000000000000000   1.000000000000000 
ATOMIC_SPECIES
  Ge   72.63000  Ge.pbe-dn-kjpaw_psl.1.0.0.UPF 
ATOMIC_POSITIONS {crystal}
  Ge   0.500000000000000   0.000000000000000   0.500000000000000 
  Ge   0.250000000000000   0.250000000000000   0.250000000000000 
  Ge   0.500000000000000   0.500000000000000   0.000000000000000 
  Ge   0.250000000000000   0.750000000000000   0.750000000000000 
  Ge   0.000000000000000   0.000000000000000   0.000000000000000 
  Ge   0.750000000000000   0.250000000000000   0.750000000000000 
  Ge   0.000000000000000   0.500000000000000   0.500000000000000 
  Ge   0.750000000000000   0.750000000000000   0.250000000000000 
K_POINTS automatic
  4 4 4  1 1 1

