&CONTROL
  calculation  = 'vc-relax' ,
  nstep=100,
  forc_conv_thr = 1.0e-03,
  tstress = .true. ,
  tprnfor = .true. ,
  prefix  = 'pw' ,
  outdir  = './work/' ,
  pseudo_dir = './potentials' ,
/
&SYSTEM
  ibrav = 0
  A =    4.89998
  nat = 36
  ntyp = 1
  ecutwfc  =  43.0 ,
  ecutrho  = 325.0 ,
  occupations = 'smearing' ,
  degauss  = 0.02 ,
  smearing = 'mp',
  nspin = 2 ,
  starting_magnetization(1) = 1 ,
  tot_magnetization = -1 ,
/
&ELECTRONS
  conv_thr = 2.6e-03 ,
  mixing_beta = 0.7 ,
/
&IONS
  ion_dynamics = 'bfgs' ,
/
&CELL
  cell_dynamics='bfgs',
  press_conv_thr = 0.5,
/
CELL_PARAMETERS {alat}
  1.000000000000000   0.000000000000000   0.000000000000000 
 -0.500000000000000   0.866025403784439   0.000000000000000 
  0.000000000000000   0.000000000000000   2.561437095928008 
ATOMIC_SPECIES
   B   10.81350  B.pbe-n-kjpaw_psl.1.0.0.UPF 
ATOMIC_POSITIONS {crystal}
  B   0.429150670000000   0.214575330000000   0.224883330000000 
  B   0.785424670000000   0.570849330000000   0.224883330000000 
  B   0.785424670000000   0.214575330000000   0.224883330000000 
  B   0.881242000000000   0.118758000000000   0.108450000000000 
  B   0.237516000000000   0.118758000000000   0.108450000000000 
  B   0.881242000000000   0.762484000000000   0.108450000000000 
  B   0.606218670000000   0.803109330000000   0.024239330000000 
  B   0.196890670000000   0.393781330000000   0.024239330000000 
  B   0.196890670000000   0.803109330000000   0.024239330000000 
  B   0.469776000000000   0.530224000000000   0.309094000000000 
  B   0.060448000000000   0.530224000000000   0.309094000000000 
  B   0.469776000000000   0.939552000000000   0.309094000000000 
  B   0.095817330000000   0.547908670000000   0.558216670000000 
  B   0.452091330000000   0.904182670000000   0.558216670000000 
  B   0.452091330000000   0.547908670000000   0.558216670000000 
  B   0.547908670000000   0.452091330000000   0.441783330000000 
  B   0.904182670000000   0.452091330000000   0.441783330000000 
  B   0.547908670000000   0.095817330000000   0.441783330000000 
  B   0.272885330000000   0.136442670000000   0.357572670000000 
  B   0.863557330000000   0.727114670000000   0.357572670000000 
  B   0.863557330000000   0.136442670000000   0.357572670000000 
  B   0.136442670000000   0.863557330000000   0.642427330000000 
  B   0.727114670000000   0.863557330000000   0.642427330000000 
  B   0.136442670000000   0.272885330000000   0.642427330000000 
  B   0.762484000000000   0.881242000000000   0.891550000000000 
  B   0.118758000000000   0.237516000000000   0.891550000000000 
  B   0.118758000000000   0.881242000000000   0.891550000000000 
  B   0.214575330000000   0.785424670000000   0.775116670000000 
  B   0.570849330000000   0.785424670000000   0.775116670000000 
  B   0.214575330000000   0.429150670000000   0.775116670000000 
  B   0.939552000000000   0.469776000000000   0.690906000000000 
  B   0.530224000000000   0.060448000000000   0.690906000000000 
  B   0.530224000000000   0.469776000000000   0.690906000000000 
  B   0.803109330000000   0.196890670000000   0.975760670000000 
  B   0.393781330000000   0.196890670000000   0.975760670000000 
  B   0.803109330000000   0.606218670000000   0.975760670000000 
K_POINTS automatic
  6 6 2  1 1 1

