&CONTROL
  calculation  = 'vc-relax' ,
  tstress = .true. ,
  tprnfor = .true. ,
  prefix  = 'pw' ,
  outdir  = './work/' ,
  pseudo_dir = './potentials' ,
/
&SYSTEM
  ibrav = 0
  A =    2.78105
  nat = 2
  ntyp = 1
  ecutwfc  =  51.0 ,
  ecutrho  = 274.0 ,
  occupations = 'smearing' ,
  degauss  = 0.02 ,
  smearing = 'mp',
  nspin = 2 ,
  starting_magnetization(1) = 1 ,
  tot_magnetization = -1 ,
/
&ELECTRONS
  mixing_beta = 0.7 ,
/
&IONS
  ion_dynamics = 'bfgs' ,
/
&CELL
  cell_dynamics='bfgs',
/
CELL_PARAMETERS {alat}
  1.000000000000000   0.000000000000000   0.000000000000000 
 -0.500000000000000   0.866025403784439   0.000000000000000 
  0.000000000000000   0.000000000000000   1.617064046909879 
ATOMIC_SPECIES
  Re  186.20700  Re.pbe-spn-kjpaw_psl.1.0.0.UPF 
ATOMIC_POSITIONS {crystal}
  Re   0.666666666666667   0.333333333333333   0.750000000000000 
  Re   0.333333333333333   0.666666666666667   0.250000000000000 
K_POINTS automatic
  12 12 6  1 1 1

